rcpsp/heur_output_or_constraints/Log=10/heurj60.txt
encoding rcpsp/j60.sm/j6028_2.sm nv: 1316084 nc: 2648432 enctime: 18.64
encoding rcpsp/j60.sm/j6028_2.sm nv: 277745 nc: 557174 enctime: 3.31
c File: j6028_2.smnaiveor10.wcnf
c optimal
c final solution cost: 64
c CPU time: 3.023810
s OPTIMUM FOUND

c File: j6028_2.smor10.wcnf
c optimal
c final solution cost: 64
c CPU time: 0.478415
s OPTIMUM FOUND


rcpsp/heur_output_or_constraints/Log=10/heurj60.txt
encoding rcpsp/j60.sm/j6028_3.sm nv: 1219680 nc: 2460629 enctime: 17.75
encoding rcpsp/j60.sm/j6028_3.sm nv: 277200 nc: 557581 enctime: 3.29
c File: j6028_3.smnaiveor10.wcnf
c optimal
c final solution cost: 69
c CPU time: 2.952283
s OPTIMUM FOUND

c File: j6028_3.smor10.wcnf
c optimal
c final solution cost: 69
c CPU time: 0.505658
s OPTIMUM FOUND


rcpsp/heur_output_or_constraints/Log=10/heurj60.txt
encoding rcpsp/j60.sm/j6028_4.sm nv: 1194204 nc: 2420084 enctime: 17.66
encoding rcpsp/j60.sm/j6028_4.sm nv: 251790 nc: 508270 enctime: 3.00
c File: j6028_4.smnaiveor10.wcnf
c optimal
c final solution cost: 69
c CPU time: 2.911865
s OPTIMUM FOUND

c File: j6028_4.smor10.wcnf
c optimal
c final solution cost: 69
c CPU time: 0.429271
s OPTIMUM FOUND


rcpsp/heur_output_or_constraints/Log=10/heurj60.txt
encoding rcpsp/j60.sm/j6028_5.sm nv: 1633440 nc: 3280287 enctime: 23.16
encoding rcpsp/j60.sm/j6028_5.sm nv: 305040 nc: 610527 enctime: 3.62
c File: j6028_5.smnaiveor10.wcnf
c optimal
c final solution cost: 61
c CPU time: 3.730234
s OPTIMUM FOUND

c File: j6028_5.smor10.wcnf
c optimal
c final solution cost: 61
c CPU time: 0.521370
s OPTIMUM FOUND


rcpsp/heur_output_or_constraints/Log=10/heurj60.txt
encoding rcpsp/j60.sm/j6028_6.sm nv: 1372385 nc: 2782681 enctime: 20.23
encoding rcpsp/j60.sm/j6028_6.sm nv: 340130 nc: 687634 enctime: 3.97
c File: j6028_6.smnaiveor10.wcnf
c optimal
c final solution cost: 85
c CPU time: 3.288586
s OPTIMUM FOUND

c File: j6028_6.smor10.wcnf
c optimal
c final solution cost: 85
c CPU time: 0.601536
s OPTIMUM FOUND


rcpsp/heur_output_or_constraints/Log=10/heurj60.txt
encoding rcpsp/j60.sm/j6028_7.sm nv: 1822842 nc: 3656165 enctime: 25.91
encoding rcpsp/j60.sm/j6028_7.sm nv: 416024 nc: 832506 enctime: 5.51
c File: j6028_7.smnaiveor10.wcnf
c optimal
c final solution cost: 75
c CPU time: 4.034522
s OPTIMUM FOUND

c File: j6028_7.smor10.wcnf
c optimal
c final solution cost: 75
c CPU time: 0.705256
s OPTIMUM FOUND


rcpsp/heur_output_or_constraints/Log=10/heurj60.txt
encoding rcpsp/j60.sm/j6028_8.sm nv: 1206400 nc: 2439761 enctime: 17.56
encoding rcpsp/j60.sm/j6028_8.sm nv: 214890 nc: 432545 enctime: 2.59
c File: j6028_8.smnaiveor10.wcnf
c optimal
c final solution cost: 56
c CPU time: 3.350806
s OPTIMUM FOUND

c File: j6028_8.smor10.wcnf
c optimal
c final solution cost: 56
c CPU time: 0.365521
s OPTIMUM FOUND


rcpsp/heur_output_or_constraints/Log=10/heurj60.txt
encoding rcpsp/j60.sm/j6028_9.sm nv: 1532940 nc: 3102131 enctime: 22.50
encoding rcpsp/j60.sm/j6028_9.sm nv: 308350 nc: 621815 enctime: 3.67
c File: j6028_9.smnaiveor10.wcnf
c optimal
c final solution cost: 69
c CPU time: 3.586027
s OPTIMUM FOUND

c File: j6028_9.smor10.wcnf
c optimal
c final solution cost: 69
c CPU time: 0.527630
s OPTIMUM FOUND


rcpsp/heur_output_or_constraints/Log=10/heurj60.txt
encoding rcpsp/j60.sm/j602_8.sm nv: 161539 nc: 383092 enctime: 4.04
encoding rcpsp/j60.sm/j602_8.sm nv: 32406 nc: 74856 enctime: 0.49
c File: j602_8.smnaiveor10.wcnf
c optimal
c final solution cost: 61
c CPU time: 1.090246
s OPTIMUM FOUND

c File: j602_8.smor10.wcnf
c optimal
c final solution cost: 61
c CPU time: 0.078954
s OPTIMUM FOUND


rcpsp/heur_output_or_constraints/Log=10/heurj60.txt
encoding rcpsp/j60.sm/j6029_10.sm nv: 948864 nc: 1965284 enctime: 15.07
encoding rcpsp/j60.sm/j6029_10.sm nv: 370944 nc: 766659 enctime: 4.82
c File: j6029_10.smnaiveor10.wcnf
c timeout
c final solution cost: 131
c CPU time: 62.056563
s UNKNOWN

c File: j6029_10.smor10.wcnf
c timeout
c final solution cost: 128
c CPU time: 60.667315
s UNKNOWN


rcpsp/heur_output_or_constraints/Log=10/heurj60.txt
encoding rcpsp/j60.sm/j6029_1.sm nv: 851620 nc: 1750011 enctime: 12.69
encoding rcpsp/j60.sm/j6029_1.sm nv: 320740 nc: 657723 enctime: 4.10
c File: j6029_1.smnaiveor10.wcnf
c timeout
c final solution cost: 110
c CPU time: 61.771843
s UNKNOWN

c File: j6029_1.smor10.wcnf
c timeout
c final solution cost: 112
c CPU time: 60.560824
s UNKNOWN


rcpsp/heur_output_or_constraints/Log=10/heurj60.txt
encoding rcpsp/j60.sm/j6029_2.sm nv: 732036 nc: 1517696 enctime: 11.50
encoding rcpsp/j60.sm/j6029_2.sm nv: 329186 nc: 681196 enctime: 4.27
c File: j6029_2.smnaiveor10.wcnf
c timeout
c final solution cost: 135
c CPU time: 61.642998
s UNKNOWN

c File: j6029_2.smor10.wcnf
c timeout
c final solution cost: 140
c CPU time: 60.615801
s UNKNOWN


rcpsp/heur_output_or_constraints/Log=10/heurj60.txt
encoding rcpsp/j60.sm/j6029_3.sm nv: 918509 nc: 1902664 enctime: 14.44
encoding rcpsp/j60.sm/j6029_3.sm nv: 357345 nc: 738572 enctime: 4.14
c File: j6029_3.smnaiveor10.wcnf
c timeout
c final solution cost: 134
c CPU time: 61.974936
s UNKNOWN

c File: j6029_3.smor10.wcnf
c timeout
c CPU time: 60.526139
s UNKNOWN


rcpsp/heur_output_or_constraints/Log=10/heurj60.txt
encoding rcpsp/j60.sm/j6029_4.sm nv: 911501 nc: 1897060 enctime: 14.74
encoding rcpsp/j60.sm/j6029_4.sm nv: 388467 nc: 806908 enctime: 5.06
c File: j6029_4.smnaiveor10.wcnf
c timeout
c final solution cost: 145
c CPU time: 62.024990
s UNKNOWN

c File: j6029_4.smor10.wcnf
c timeout
c final solution cost: 148
c CPU time: 60.718110
s UNKNOWN


rcpsp/heur_output_or_constraints/Log=10/heurj60.txt
encoding rcpsp/j60.sm/j6029_5.sm nv: 917562 nc: 1889959 enctime: 13.98
encoding rcpsp/j60.sm/j6029_5.sm nv: 342332 nc: 703624 enctime: 3.93
c File: j6029_5.smnaiveor10.wcnf
c timeout
c final solution cost: 120
c CPU time: 61.916737
s UNKNOWN

c File: j6029_5.smor10.wcnf
c timeout
c CPU time: 60.491195
s UNKNOWN


rcpsp/heur_output_or_constraints/Log=10/heurj60.txt
encoding rcpsp/j60.sm/j6029_6.sm nv: 1061355 nc: 2225719 enctime: 17.44
encoding rcpsp/j60.sm/j6029_6.sm nv: 464505 nc: 972219 enctime: 6.09
c File: j6029_6.smnaiveor10.wcnf
c timeout
c final solution cost: 168
c CPU time: 62.567592
s UNKNOWN

c File: j6029_6.smor10.wcnf
c timeout
c final solution cost: 170
c CPU time: 60.856534
s UNKNOWN


rcpsp/heur_output_or_constraints/Log=10/heurj60.txt
encoding rcpsp/j60.sm/j6029_7.sm nv: 773427 nc: 1595314 enctime: 11.81
encoding rcpsp/j60.sm/j6029_7.sm nv: 357929 nc: 737094 enctime: 4.49
c File: j6029_7.smnaiveor10.wcnf
c timeout
c final solution cost: 129
c CPU time: 61.680350
s UNKNOWN

c File: j6029_7.smor10.wcnf
c timeout
c final solution cost: 133
c CPU time: 60.651051
s UNKNOWN


rcpsp/heur_output_or_constraints/Log=10/heurj60.txt
encoding rcpsp/j60.sm/j6029_8.sm nv: 1005499 nc: 2060900 enctime: 14.92
encoding rcpsp/j60.sm/j6029_8.sm nv: 361108 nc: 738584 enctime: 4.07
c File: j6029_8.smnaiveor10.wcnf
c timeout
c final solution cost: 104
c CPU time: 61.957196
s UNKNOWN

c File: j6029_8.smor10.wcnf
c timeout
c final solution cost: 107
c CPU time: 60.590469
s UNKNOWN


rcpsp/heur_output_or_constraints/Log=10/heurj60.txt
encoding rcpsp/j60.sm/j6029_9.sm nv: 796358 nc: 1639918 enctime: 11.73
encoding rcpsp/j60.sm/j6029_9.sm nv: 350190 nc: 719890 enctime: 4.32
c File: j6029_9.smnaiveor10.wcnf
c timeout
c final solution cost: 125
c CPU time: 61.649439
s UNKNOWN

c File: j6029_9.smor10.wcnf
c timeout
c final solution cost: 120
c CPU time: 60.598806
s UNKNOWN


rcpsp/heur_output_or_constraints/Log=10/heurj60.txt
encoding rcpsp/j60.sm/j602_9.sm nv: 164793 nc: 392201 enctime: 4.14
encoding rcpsp/j60.sm/j602_9.sm nv: 28362 nc: 65492 enctime: 0.43
c File: j602_9.smnaiveor10.wcnf
c optimal
c final solution cost: 51
c CPU time: 1.218826
s OPTIMUM FOUND

c File: j602_9.smor10.wcnf
c optimal
c final solution cost: 51
c CPU time: 0.079549
s OPTIMUM FOUND


rcpsp/heur_output_or_constraints/Log=10/heurj60.txt
encoding rcpsp/j60.sm/j6030_10.sm nv: 1552188 nc: 3162759 enctime: 22.69
encoding rcpsp/j60.sm/j6030_10.sm nv: 406220 nc: 825531 enctime: 4.59
c File: j6030_10.smnaiveor10.wcnf
c timeout
c final solution cost: 87
c CPU time: 62.886419
s UNKNOWN

c File: j6030_10.smor10.wcnf
c timeout
c final solution cost: 85
c CPU time: 60.607755
s UNKNOWN


rcpsp/heur_output_or_constraints/Log=10/heurj60.txt
encoding rcpsp/j60.sm/j6030_1.sm nv: 1381650 nc: 2790662 enctime: 19.01
encoding rcpsp/j60.sm/j6030_1.sm nv: 343125 nc: 691366 enctime: 3.85
c File: j6030_1.smnaiveor10.wcnf
c optimal
c final solution cost: 70
c CPU time: 3.841711
s OPTIMUM FOUND

c File: j6030_1.smor10.wcnf
c optimal
c final solution cost: 70
c CPU time: 0.913378
s OPTIMUM FOUND


rcpsp/heur_output_or_constraints/Log=10/heurj60.txt
encoding rcpsp/j60.sm/j6030_2.sm nv: 1464708 nc: 2970762 enctime: 20.82
encoding rcpsp/j60.sm/j6030_2.sm nv: 342804 nc: 693438 enctime: 3.88
c File: j6030_2.smnaiveor10.wcnf
c timeout
c final solution cost: 75
c CPU time: 62.565959
s UNKNOWN

c File: j6030_2.smor10.wcnf
c timeout
c final solution cost: 70
c CPU time: 60.497210
s UNKNOWN


rcpsp/heur_output_or_constraints/Log=10/heurj60.txt
encoding rcpsp/j60.sm/j6030_3.sm nv: 1756066 nc: 3576259 enctime: 25.99
encoding rcpsp/j60.sm/j6030_3.sm nv: 395930 nc: 804011 enctime: 4.69
c File: j6030_3.smnaiveor10.wcnf
c optimal
c final solution cost: 80
c CPU time: 16.242485
s OPTIMUM FOUND

c File: j6030_3.smor10.wcnf
c optimal
c final solution cost: 80
c CPU time: 1.387854
s OPTIMUM FOUND


rcpsp/heur_output_or_constraints/Log=10/heurj60.txt
encoding rcpsp/j60.sm/j6030_4.sm nv: 1650506 nc: 3328582 enctime: 22.15
encoding rcpsp/j60.sm/j6030_4.sm nv: 367354 nc: 738966 enctime: 4.70
c File: j6030_4.smnaiveor10.wcnf
c optimal
c final solution cost: 58
c CPU time: 11.004308
s OPTIMUM FOUND

c File: j6030_4.smor10.wcnf
c optimal
c final solution cost: 58
c CPU time: 3.094502
s OPTIMUM FOUND


rcpsp/heur_output_or_constraints/Log=10/heurj60.txt
encoding rcpsp/j60.sm/j6030_5.sm nv: 1748292 nc: 3547997 enctime: 24.68
encoding rcpsp/j60.sm/j6030_5.sm nv: 389043 nc: 787332 enctime: 4.33
c File: j6030_5.smnaiveor10.wcnf
c timeout
c final solution cost: 74
c CPU time: 63.086458
s UNKNOWN

c File: j6030_5.smor10.wcnf
c timeout
c final solution cost: 74
c CPU time: 60.547797
s UNKNOWN


rcpsp/heur_output_or_constraints/Log=10/heurj60.txt
encoding rcpsp/j60.sm/j6030_6.sm nv: 1572600 nc: 3166464 enctime: 20.61
encoding rcpsp/j60.sm/j6030_6.sm nv: 366940 nc: 737204 enctime: 4.03
c File: j6030_6.smnaiveor10.wcnf
c optimal
c final solution cost: 62
c CPU time: 4.078840
s OPTIMUM FOUND

c File: j6030_6.smor10.wcnf
c optimal
c final solution cost: 62
c CPU time: 0.844551
s OPTIMUM FOUND


rcpsp/heur_output_or_constraints/Log=10/heurj60.txt
encoding rcpsp/j60.sm/j6030_7.sm nv: 1520428 nc: 3099807 enctime: 21.01
encoding rcpsp/j60.sm/j6030_7.sm nv: 384284 nc: 781279 enctime: 4.69
c File: j6030_7.smnaiveor10.wcnf
c timeout
c final solution cost: 83
c CPU time: 62.718118
s UNKNOWN

c File: j6030_7.smor10.wcnf
c timeout
c final solution cost: 85
c CPU time: 60.540914
s UNKNOWN


rcpsp/heur_output_or_constraints/Log=10/heurj60.txt
encoding rcpsp/j60.sm/j6030_8.sm nv: 1648717 nc: 3324310 enctime: 21.23
encoding rcpsp/j60.sm/j6030_8.sm nv: 332864 nc: 669328 enctime: 4.15
c File: j6030_8.smnaiveor10.wcnf
c optimal
c final solution cost: 60
c CPU time: 8.550816
s OPTIMUM FOUND

c File: j6030_8.smor10.wcnf
c optimal
c final solution cost: 60
c CPU time: 0.914761
s OPTIMUM FOUND


rcpsp/heur_output_or_constraints/Log=10/heurj60.txt
encoding rcpsp/j60.sm/j6030_9.sm nv: 1434945 nc: 2928524 enctime: 19.96
encoding rcpsp/j60.sm/j6030_9.sm nv: 394305 nc: 802700 enctime: 4.26
c File: j6030_9.smnaiveor10.wcnf
c timeout
c final solution cost: 89
c CPU time: 62.580021
s UNKNOWN

c File: j6030_9.smor10.wcnf
c timeout
c final solution cost: 87
c CPU time: 60.559228
s UNKNOWN


rcpsp/heur_output_or_constraints/Log=10/heurj60.txt
encoding rcpsp/j60.sm/j603_10.sm nv: 159460 nc: 383840 enctime: 3.85
encoding rcpsp/j60.sm/j603_10.sm nv: 34748 nc: 81754 enctime: 0.51
c File: j603_10.smnaiveor10.wcnf
c optimal
c final solution cost: 69
c CPU time: 0.922362
s OPTIMUM FOUND

c File: j603_10.smor10.wcnf
c optimal
c final solution cost: 69
c CPU time: 0.099187
s OPTIMUM FOUND


rcpsp/heur_output_or_constraints/Log=10/heurj60.txt
encoding rcpsp/j60.sm/j6031_10.sm nv: 1934730 nc: 3889215 enctime: 25.14
encoding rcpsp/j60.sm/j6031_10.sm nv: 356236 nc: 714237 enctime: 3.94
c File: j6031_10.smnaiveor10.wcnf
c optimal
c final solution cost: 56
c CPU time: 4.606688
s OPTIMUM FOUND

c File: j6031_10.smor10.wcnf
c optimal
c final solution cost: 56
c CPU time: 0.771339
s OPTIMUM FOUND


rcpsp/heur_output_or_constraints/Log=10/heurj60.txt
encoding rcpsp/j60.sm/j6031_1.sm nv: 1957956 nc: 3927246 enctime: 25.15
encoding rcpsp/j60.sm/j6031_1.sm nv: 425919 nc: 852568 enctime: 4.58
c File: j6031_1.smnaiveor10.wcnf
c optimal
c final solution cost: 65
c CPU time: 4.112105
s OPTIMUM FOUND

c File: j6031_1.smor10.wcnf
c optimal
c final solution cost: 65
c CPU time: 0.897946
s OPTIMUM FOUND


rcpsp/heur_output_or_constraints/Log=10/heurj60.txt
encoding rcpsp/j60.sm/j6031_2.sm nv: 1851171 nc: 3735079 enctime: 24.12
encoding rcpsp/j60.sm/j6031_2.sm nv: 404775 nc: 814683 enctime: 5.04
c File: j6031_2.smnaiveor10.wcnf
c optimal
c final solution cost: 74
c CPU time: 4.717616
s OPTIMUM FOUND

c File: j6031_2.smor10.wcnf
c optimal
c final solution cost: 74
c CPU time: 0.720708
s OPTIMUM FOUND


rcpsp/heur_output_or_constraints/Log=10/heurj60.txt
encoding rcpsp/j60.sm/j6031_3.sm nv: 2053634 nc: 4127911 enctime: 26.20
encoding rcpsp/j60.sm/j6031_3.sm nv: 381480 nc: 764930 enctime: 4.21
c File: j6031_3.smnaiveor10.wcnf
c optimal
c final solution cost: 59
c CPU time: 5.259651
s OPTIMUM FOUND

c File: j6031_3.smor10.wcnf
c optimal
c final solution cost: 59
c CPU time: 0.622871
s OPTIMUM FOUND


rcpsp/heur_output_or_constraints/Log=10/heurj60.txt
encoding rcpsp/j60.sm/j6031_4.sm nv: 1662186 nc: 3351854 enctime: 21.69
encoding rcpsp/j60.sm/j6031_4.sm nv: 360663 nc: 725402 enctime: 3.97
c File: j6031_4.smnaiveor10.wcnf
c optimal
c final solution cost: 68
c CPU time: 4.092333
s OPTIMUM FOUND

c File: j6031_4.smor10.wcnf
c optimal
c final solution cost: 68
c CPU time: 0.581458
s OPTIMUM FOUND


rcpsp/heur_output_or_constraints/Log=10/heurj60.txt
encoding rcpsp/j60.sm/j6031_5.sm nv: 2384524 nc: 4784779 enctime: 30.10
encoding rcpsp/j60.sm/j6031_5.sm nv: 417832 nc: 836380 enctime: 4.73
c File: j6031_5.smnaiveor10.wcnf
c optimal
c final solution cost: 57
c CPU time: 5.871879
s OPTIMUM FOUND

c File: j6031_5.smor10.wcnf
c optimal
c final solution cost: 57
c CPU time: 0.683297
s OPTIMUM FOUND


rcpsp/heur_output_or_constraints/Log=10/heurj60.txt
encoding rcpsp/j60.sm/j6031_6.sm nv: 2472873 nc: 4990013 enctime: 32.61
encoding rcpsp/j60.sm/j6031_6.sm nv: 457704 nc: 921001 enctime: 5.05
c File: j6031_6.smnaiveor10.wcnf
c optimal
c final solution cost: 71
c CPU time: 6.377570
s OPTIMUM FOUND

c File: j6031_6.smor10.wcnf
c optimal
c final solution cost: 71
c CPU time: 0.794493
s OPTIMUM FOUND


rcpsp/heur_output_or_constraints/Log=10/heurj60.txt
encoding rcpsp/j60.sm/j6031_7.sm nv: 1621120 nc: 3271867 enctime: 21.29
encoding rcpsp/j60.sm/j6031_7.sm nv: 390082 nc: 785491 enctime: 4.73
c File: j6031_7.smnaiveor10.wcnf
c optimal
c final solution cost: 76
c CPU time: 4.112680
s OPTIMUM FOUND

c File: j6031_7.smor10.wcnf
c optimal
c final solution cost: 76
c CPU time: 0.651820
s OPTIMUM FOUND


rcpsp/heur_output_or_constraints/Log=10/heurj60.txt
encoding rcpsp/j60.sm/j6031_8.sm nv: 1957200 nc: 3944827 enctime: 25.71
encoding rcpsp/j60.sm/j6031_8.sm nv: 419400 nc: 843355 enctime: 4.59
c File: j6031_8.smnaiveor10.wcnf
c optimal
c final solution cost: 69
c CPU time: 8.748483
s OPTIMUM FOUND

c File: j6031_8.smor10.wcnf
c optimal
c final solution cost: 69
c CPU time: 1.649580
s OPTIMUM FOUND


